50
6487

374 267
559 492
556 903
294 886
32 719
318 692
530 191
254 628
820 668
431 222
180 59
280 95
883 57
105 267
35 244
37 32
525 484
984 384
333 18
797 52
600 394
951 407
668 692
483 270
385 664
860 660
6 72
899 264
941 35
770 201
193 648
352 455
491 595
429 75
151 283
110 187
712 984
165 633
985 660
669 692
267 232
218 338
845 677
914 62
306 643
163 146
39 974
426 956
857 324
606 59
